(set-info :smt-lib-version 2.6)
(set-logic LRA)
(set-info :source |
   Monniaux, David; Quantifier Elimination by Lazy Model Enumeration, CAV 2010
|)
(set-info :category "random")
; ./Mjollnir_examples/B6/formula_093.m
(set-info :status unsat)
(assert
 (forall ((|v17:0| Real) )(forall ((|v16:1| Real) )(forall ((|v15:2| Real) )(forall ((|v14:3| Real) )(forall ((|v13:4| Real) )(forall ((|v12:5| Real) )(exists ((|v11:6| Real) )(exists ((|v10:7| Real) )(exists ((|v9:8| Real) )(exists ((|v8:9| Real) )(exists ((|v7:10| Real) )(exists ((|v6:11| Real) )(forall ((|v5:12| Real) )(forall ((|v4:13| Real) )(forall ((|v3:14| Real) )(forall ((|v2:15| Real) )(forall ((|v1:16| Real) )(forall ((|v0:17| Real) )(let ((?x28 (- 8)))
(let ((?x655 (* ?x28 |v6:11|)))
(let ((?x1434 (+ (+ (* (- 18) |v16:1|) (* 3 |v14:3|)) (* 11 |v16:1|))))
(let ((?x1439 (+ (+ (+ ?x1434 (* 9 |v11:6|)) ?x655) (* (- 7) |v1:16|))))
(let ((?x301 11))
(let ((?x250 (- 17)))
(let ((?x660 (* ?x250 |v16:1|)))
(let ((?x1191 (* ?x250 |v7:10|)))
(let ((?x1423 (+ (+ (+ (* 2 |v9:8|) (* (- 3) |v3:14|)) ?x1191) ?x660)))
(let ((?x1429 (+ (+ (+ ?x1423 (* 8 |v10:7|)) (* 15 |v17:0|)) (* (- 15) |v15:2|))))
(let ((?x65 7))
(let ((?x525 (* ?x65 |v3:14|)))
(let ((?x137 (- 2)))
(let ((?x320 (* ?x137 |v1:16|)))
(let ((?x193 (- 1)))
(let ((?x560 (* ?x193 |v3:14|)))
(let ((?x365 (- 9)))
(let ((?x414 (* ?x365 |v13:4|)))
(let ((?x1414 (+ (+ (+ (* ?x301 |v17:0|) (* ?x28 |v8:9|)) (* (- 7) |v10:7|)) ?x414)))
(let ((?x120 (- 16)))
(let ((?x750 (* ?x301 |v5:12|)))
(let ((?x36 (- 20)))
(let ((?x37 (* ?x36 |v16:1|)))
(let ((?x189 2))
(let ((?x889 (* ?x189 |v0:17|)))
(let ((?x103 (- 12)))
(let ((?x104 (* ?x103 |v13:4|)))
(let ((?x1406 (+ (+ (+ (* (- 7) |v15:2|) (* (- 19) |v13:4|)) ?x104) (* 19 |v9:8|))))
(let (($x1419 (or (<= (+ (+ (+ ?x1406 ?x889) ?x37) ?x750) ?x120) (<= (+ (+ (+ ?x1414 ?x560) ?x320) ?x525) ?x28))))
(let (($x1444 (and $x1419 (and (<= ?x1429 ?x301) (<= (+ ?x1439 (* 4 |v4:13|)) ?x28)))))
(let ((?x19 10))
(let ((?x419 14))
(let ((?x976 (* ?x419 |v16:1|)))
(let ((?x14 (- 18)))
(let ((?x1196 (* ?x14 |v1:16|)))
(let ((?x32 (- 13)))
(let ((?x1308 (* ?x32 |v8:9|)))
(let ((?x1396 (+ (+ (+ (* ?x137 |v6:11|) (* 3 |v7:10|)) ?x1308) (* ?x32 |v5:12|))))
(let ((?x44 0))
(let ((?x29 (* ?x28 |v2:15|)))
(let ((?x309 9))
(let ((?x1153 (* ?x309 |v4:13|)))
(let ((?x1384 (+ (+ (* (- 7) |v12:5|) (* ?x19 |v10:7|)) (* (- 7) |v4:13|))))
(let ((?x1390 (+ (+ (+ (+ ?x1384 (* (- 11) |v16:1|)) ?x1153) ?x29) (* ?x250 |v4:13|))))
(let ((?x171 3))
(let ((?x246 (* ?x120 |v5:12|)))
(let ((?x56 17))
(let ((?x1302 (* ?x56 |v10:7|)))
(let ((?x940 (* ?x19 |v12:5|)))
(let ((?x1374 (+ (+ (+ (* 5 |v10:7|) (* 12 |v17:0|)) ?x940) ?x1302)))
(let (($x1392 (and (<= (+ (+ (+ ?x1374 (* ?x32 |v1:16|)) ?x246) (* ?x419 |v13:4|)) ?x171) (<= ?x1390 ?x44))))
(let (($x1445 (or (or $x1392 (<= (+ (+ (+ ?x1396 ?x1196) (* ?x44 |v15:2|)) ?x976) ?x19)) $x1444)))
(let ((?x23 (- 4)))
(let ((?x506 (* ?x44 |v10:7|)))
(let ((?x126 8))
(let ((?x127 (* ?x126 |v9:8|)))
(let ((?x1362 (+ (+ (* ?x171 |v10:7|) (* 18 |v11:6|)) (* 12 |v11:6|))))
(let ((?x1368 (+ (+ (+ (+ ?x1362 (* 16 |v8:9|)) (* ?x250 |v13:4|)) ?x127) ?x506)))
(let ((?x180 13))
(let ((?x75 (- 15)))
(let ((?x86 (* ?x75 |v1:16|)))
(let ((?x656 (* ?x137 |v4:13|)))
(let ((?x350 (* ?x250 |v6:11|)))
(let ((?x1354 (+ (+ (+ (* ?x56 |v6:11|) (* ?x65 |v12:5|)) (* 6 |v6:11|)) (* 20 |v11:6|))))
(let ((?x720 (* ?x301 |v17:0|)))
(let ((?x1345 (+ (+ (+ (* 18 |v4:13|) (* ?x65 |v15:2|)) ?x1191) (* ?x19 |v8:9|))))
(let (($x1359 (or (<= (+ (+ (+ ?x1345 (* ?x309 |v14:3|)) |v8:9|) ?x720) ?x14) (<= (+ (+ (+ ?x1354 ?x350) ?x656) ?x86) ?x180))))
(let ((?x130 (- 10)))
(let ((?x600 (* ?x130 |v5:12|)))
(let ((?x685 (* ?x309 |v12:5|)))
(let ((?x83 (- 19)))
(let ((?x929 (* ?x83 |v10:7|)))
(let ((?x1335 (+ (+ (+ (+ (* 6 |v14:3|) ?x320) (* ?x19 |v9:8|)) ?x929) ?x685)))
(let ((?x10 20))
(let ((?x11 (* ?x10 |v13:4|)))
(let ((?x1324 (+ (+ (+ (* (- 14) |v16:1|) (* ?x14 |v3:14|)) (* ?x365 |v9:8|)) (* ?x23 |v13:4|))))
(let (($x1330 (<= (+ (+ (+ ?x1324 ?x11) (* ?x301 |v10:7|)) (* (- 3) |v11:6|)) ?x23)))
(let ((?x578 (* ?x189 |v8:9|)))
(let ((?x140 (* ?x120 |v13:4|)))
(let ((?x1312 (+ (+ (+ ?x1308 (* (- 6) |v17:0|)) (* 18 |v17:0|)) ?x140)))
(let (($x1318 (<= (+ (+ (+ ?x1312 (* (- 11) |v7:10|)) ?x578) (* ?x365 |v5:12|)) ?x120)))
(let ((?x237 (- 11)))
(let ((?x210 (- 5)))
(let ((?x457 (* ?x210 |v15:2|)))
(let ((?x100 (- 7)))
(let ((?x571 (* ?x100 |v5:12|)))
(let ((?x1301 (+ (+ (+ (* ?x171 |v8:9|) (* ?x36 |v13:4|)) (* 15 |v6:11|)) ?x571)))
(let (($x1340 (and (or (<= (+ (+ (+ ?x1301 ?x1302) (* ?x250 |v3:14|)) ?x457) ?x237) $x1318) (or $x1330 (<= (+ (+ ?x1335 ?x600) |v16:1|) ?x193)))))
(let ((?x39 1))
(let ((?x465 (* ?x237 |v1:16|)))
(let ((?x1285 (* ?x189 |v9:8|)))
(let ((?x1286 (+ (+ (+ (* (- 3) |v2:15|) (* ?x23 |v17:0|)) (* ?x103 |v16:1|)) ?x1285)))
(let (($x1292 (<= (+ (+ (+ ?x1286 (* ?x100 |v3:14|)) ?x465) (* (- 3) |v0:17|)) ?x39)))
(let ((?x264 18))
(let ((?x1178 (* ?x44 |v11:6|)))
(let ((?x91 4))
(let ((?x727 (* ?x91 |v5:12|)))
(let ((?x1274 (+ (+ (+ (* ?x91 |v1:16|) (* ?x126 |v2:15|)) (* ?x137 |v8:9|)) (* ?x10 |v2:15|))))
(let ((?x33 (* ?x32 |v14:3|)))
(let ((?x160 16))
(let ((?x619 (* ?x160 |v16:1|)))
(let ((?x117 (- 6)))
(let ((?x504 (* ?x117 |v5:12|)))
(let ((?x1263 (+ (+ (+ (* ?x189 |v13:4|) (* (- 14) |v14:3|)) (* ?x10 |v17:0|)) (* ?x264 |v6:11|))))
(let ((?x589 (* ?x180 |v9:8|)))
(let ((?x861 (* ?x19 |v10:7|)))
(let ((?x1252 (+ (+ (+ (+ (* ?x130 |v9:8|) (* ?x160 |v4:13|)) (* ?x130 |v10:7|)) ?x861) ?x589)))
(let (($x1268 (or (<= (+ (+ ?x1252 (* ?x103 |v17:0|)) (* ?x189 |v5:12|)) ?x126) (<= (+ (+ (+ ?x1263 ?x504) ?x619) ?x33) ?x36))))
(let (($x1294 (and $x1268 (and (<= (+ (+ (+ ?x1274 (* ?x91 |v14:3|)) ?x727) ?x1178) ?x264) $x1292))))
(let ((?x740 (* ?x65 |v2:15|)))
(let ((?x332 (* ?x36 |v0:17|)))
(let ((?x788 (* ?x75 |v14:3|)))
(let ((?x1241 (+ (+ (+ (* ?x75 |v3:14|) (* 12 |v8:9|)) (* ?x130 |v7:10|)) ?x788)))
(let ((?x845 (* ?x264 |v16:1|)))
(let ((?x1020 (* ?x44 |v0:17|)))
(let ((?x1232 (+ (+ (+ (+ (* ?x210 |v8:9|) (* ?x28 |v12:5|)) ?x29) (* ?x65 |v13:4|)) ?x1020)))
(let (($x1246 (and (<= (+ (+ ?x1232 ?x845) (* ?x180 |v16:1|)) ?x189) (<= (+ (+ (+ ?x1241 ?x332) ?x414) ?x740) ?x120))))
(let ((?x60 15))
(let ((?x852 (* ?x60 |v3:14|)))
(let ((?x49 6))
(let ((?x205 (* ?x49 |v17:0|)))
(let ((?x1220 (+ (+ (+ (* ?x83 |v15:2|) (* ?x180 |v4:13|)) (* ?x14 |v16:1|)) (* ?x180 |v3:14|))))
(let ((?x946 (* ?x28 |v10:7|)))
(let ((?x1208 (+ (+ (* 5 |v12:5|) (* 5 |v15:2|)) (* ?x130 |v2:15|))))
(let ((?x1215 (+ (+ (+ (+ ?x1208 ?x946) (* ?x264 |v10:7|)) (* ?x19 |v7:10|)) (* ?x19 |v17:0|))))
(let (($x1226 (and (<= ?x1215 ?x301) (<= (+ (+ (+ ?x1220 (* ?x171 |v4:13|)) ?x205) ?x852) ?x264))))
(let ((?x172 (* ?x171 |v11:6|)))
(let ((?x356 (* ?x14 |v12:5|)))
(let ((?x1197 (+ (+ (+ (+ ?x1191 (* ?x44 |v4:13|)) (* ?x171 |v2:15|)) (* ?x75 |v5:12|)) ?x1196)))
(let ((?x449 (* ?x120 |v17:0|)))
(let ((?x1187 (* ?x171 |v10:7|)))
(let ((?x609 (* ?x103 |v1:16|)))
(let ((?x61 (* ?x60 |v11:6|)))
(let ((?x1186 (+ (+ (+ (+ (* ?x36 |v17:0|) (* ?x264 |v7:10|)) (* ?x100 |v16:1|)) ?x61) ?x609)))
(let (($x1201 (or (<= (+ (+ ?x1186 ?x1187) ?x449) ?x264) (<= (+ (+ ?x1197 ?x356) ?x172) ?x237))))
(let ((?x925 (* ?x83 |v7:10|)))
(let ((?x626 (* ?x137 |v6:11|)))
(let ((?x72 (- 14)))
(let ((?x1038 (* ?x72 |v4:13|)))
(let ((?x1175 (+ (+ (+ (* ?x160 |v1:16|) (* ?x91 |v6:11|)) (* 12 |v15:2|)) ?x1038)))
(let ((?x541 (* ?x75 |v10:7|)))
(let ((?x92 (* ?x91 |v11:6|)))
(let ((?x1168 (+ (+ (+ (+ (* ?x103 |v9:8|) (* ?x365 |v0:17|)) (* ?x14 |v11:6|)) ?x92) (* ?x309 |v2:15|))))
(let (($x1181 (and (<= (+ (+ ?x1168 ?x127) ?x541) ?x120) (<= (+ (+ (+ ?x1175 ?x626) ?x925) ?x1178) ?x180))))
(let ((?x688 (* ?x19 |v5:12|)))
(let ((?x357 (* ?x83 |v15:2|)))
(let ((?x94 12))
(let ((?x1156 (* ?x94 |v17:0|)))
(let ((?x1158 (+ (+ (+ (+ (* (- 3) |v17:0|) ?x1153) (* ?x210 |v16:1|)) ?x1156) ?x357)))
(let (($x1296 (or (and (<= (+ (+ ?x1158 ?x688) ?x1153) ?x75) (and $x1181 $x1201)) (or (and $x1226 $x1246) $x1294))))
(let ((?x497 (* ?x32 |v7:10|)))
(let ((?x1142 (+ (+ (+ (+ (* ?x160 |v2:15|) (* ?x193 |v10:7|)) ?x571) (* ?x120 |v8:9|)) (* ?x44 |v16:1|))))
(let ((?x255 (* ?x160 |v13:4|)))
(let ((?x1131 (+ (+ (+ (* ?x365 |v7:10|) (* ?x91 |v7:10|)) (* 5 |v3:14|)) ?x506)))
(let (($x1147 (or (<= (+ (+ (+ ?x1131 (* ?x117 |v15:2|)) ?x255) (* ?x250 |v0:17|)) ?x171) (<= (+ (+ ?x1142 ?x497) (* ?x60 |v0:17|)) ?x94))))
(let ((?x156 5))
(let ((?x535 (* ?x156 |v5:12|)))
(let ((?x1124 (+ (+ (+ (+ (* ?x237 |v10:7|) (* (- 3) |v16:1|)) ?x535) |v1:16|) (* ?x160 |v5:12|))))
(let ((?x1116 (+ (+ (+ (* ?x189 |v14:3|) (* ?x10 |v5:12|)) (* ?x117 |v15:2|)) (* ?x137 |v5:12|))))
(let (($x1120 (<= (+ (+ (+ ?x1116 (* ?x49 |v1:16|)) (* ?x171 |v0:17|)) (* ?x32 |v11:6|)) ?x193)))
(let ((?x1105 (* ?x171 |v2:15|)))
(let ((?x1101 (+ (+ (+ (* ?x210 |v10:7|) (* ?x419 |v7:10|)) (* ?x301 |v0:17|)) (* ?x120 |v4:13|))))
(let ((?x713 (* ?x210 |v2:15|)))
(let ((?x1091 (+ (+ (+ (+ (* ?x160 |v2:15|) (* ?x301 |v15:2|)) (* ?x126 |v1:16|)) ?x713) (* ?x264 |v13:4|))))
(let (($x1108 (or (<= (+ (+ ?x1091 (* ?x56 |v8:9|)) (* ?x56 |v1:16|)) ?x75) (<= (+ (+ (+ ?x1101 (* ?x419 |v6:11|)) (* ?x130 |v14:3|)) ?x1105) ?x180))))
(let ((?x1079 (+ (+ (+ (* ?x301 |v4:13|) (* ?x126 |v13:4|)) (* ?x65 |v12:5|)) (* ?x36 |v3:14|))))
(let ((?x1071 (+ (+ (+ (+ ?x140 (* ?x83 |v5:12|)) (* ?x264 |v4:13|)) (* ?x130 |v12:5|)) (* ?x23 |v3:14|))))
(let (($x1086 (and (<= (+ (+ ?x1071 ?x852) (* ?x117 |v1:16|)) ?x94) (<= (+ (+ (+ ?x1079 ?x750) (* ?x309 |v5:12|)) (* ?x10 |v15:2|)) ?x193))))
(let (($x1149 (and (and $x1086 $x1108) (and (or $x1120 (<= (+ (+ ?x1124 (* ?x160 |v17:0|)) |v13:4|) ?x39)) $x1147))))
(let ((?x487 (* ?x100 |v16:1|)))
(let ((?x1060 (+ (+ (+ (+ (* ?x237 |v0:17|) (* (- 3) |v12:5|)) ?x713) ?x535) ?x487)))
(let ((?x1049 (+ (+ (+ (+ ?x11 (* ?x103 |v12:5|)) (* ?x137 |v13:4|)) (* ?x180 |v14:3|)) (* ?x193 |v11:6|))))
(let ((?x292 (* ?x14 |v2:15|)))
(let ((?x1041 (+ (+ (+ (+ (* ?x19 |v6:11|) (* ?x250 |v8:9|)) ?x1038) (* ?x189 |v7:10|)) ?x292)))
(let (($x1054 (and (<= (+ (+ ?x1041 (* ?x72 |v12:5|)) ?x127) ?x419) (<= (+ (+ ?x1049 (* ?x250 |v14:3|)) (* ?x23 |v3:14|)) ?x160))))
(let ((?x244 (* ?x237 |v0:17|)))
(let ((?x1028 (+ (+ (+ (* ?x56 |v9:8|) (* ?x365 |v12:5|)) (* ?x23 |v15:2|)) (* ?x126 |v6:11|))))
(let ((?x1018 (+ (+ (+ (* ?x301 |v15:2|) (* ?x210 |v14:3|)) (* ?x237 |v2:15|)) (* ?x103 |v3:14|))))
(let (($x1034 (and (<= (+ (+ (+ ?x1018 (* ?x103 |v3:14|)) ?x1020) (* ?x10 |v4:13|)) ?x137) (<= (+ (+ (+ ?x1028 (* ?x72 |v12:5|)) (* ?x309 |v1:16|)) ?x244) ?x250))))
(let (($x1150 (or (and (or $x1034 $x1054) (<= (+ (+ ?x1060 (* ?x120 |v2:15|)) ?x852) ?x49)) $x1149)))
(let ((?x1005 (+ (+ (+ (* ?x103 |v6:11|) (* ?x72 |v16:1|)) (* ?x137 |v14:3|)) (* ?x126 |v8:9|))))
(let ((?x107 19))
(let ((?x168 (* ?x107 |v11:6|)))
(let ((?x997 (+ (+ (+ (+ (* ?x120 |v7:10|) ?x33) (* ?x75 |v4:13|)) (* ?x189 |v3:14|)) ?x172)))
(let (($x1010 (and (<= (+ (+ ?x997 (* ?x237 |v2:15|)) ?x168) ?x193) (<= (+ (+ (+ ?x1005 ?x357) (* ?x237 |v6:11|)) ?x356) ?x91))))
(let ((?x746 (* ?x49 |v14:3|)))
(let ((?x987 (+ (+ (+ (+ (* ?x189 |v6:11|) (* ?x210 |v16:1|)) ?x976) (* ?x301 |v15:2|)) (* ?x72 |v0:17|))))
(let ((?x973 (+ (+ (+ (* ?x117 |v3:14|) (* ?x193 |v2:15|)) (* ?x137 |v15:2|)) (* ?x301 |v9:8|))))
(let (($x992 (and (<= (+ (+ (+ ?x973 (* ?x156 |v3:14|)) ?x976) (* ?x365 |v12:5|)) ?x32) (<= (+ (+ ?x987 (* ?x130 |v12:5|)) ?x746) ?x19))))
(let ((?x238 (* ?x237 |v5:12|)))
(let ((?x261 (* ?x14 |v6:11|)))
(let ((?x964 (+ (+ (+ (+ ?x720 (* ?x107 |v13:4|)) (* ?x193 |v8:9|)) ?x487) (* ?x49 |v0:17|))))
(let ((?x221 (* ?x193 |v2:15|)))
(let ((?x445 (* ?x117 |v3:14|)))
(let ((?x954 (+ (+ (+ (+ (* ?x60 |v10:7|) (* (- 3) |v16:1|)) ?x320) ?x445) (* ?x160 |v5:12|))))
(let (($x968 (and (<= (+ (+ ?x954 (* ?x83 |v3:14|)) ?x221) ?x365) (<= (+ (+ ?x964 ?x261) ?x238) ?x309))))
(let ((?x944 (+ (+ (+ (+ ?x740 (* ?x49 |v4:13|)) ?x940) (* ?x107 |v8:9|)) (* ?x210 |v11:6|))))
(let ((?x932 (+ (+ (+ (+ ?x925 (* ?x117 |v8:9|)) (* ?x36 |v1:16|)) ?x929) (* ?x49 |v13:4|))))
(let (($x949 (and (<= (+ (+ ?x932 (* ?x180 |v14:3|)) (* ?x44 |v2:15|)) ?x193) (<= (+ (+ ?x944 (* ?x32 |v10:7|)) ?x946) ?x171))))
(let ((?x704 (* ?x160 |v2:15|)))
(let ((?x918 (+ (+ (+ (+ (* ?x210 |v9:8|) (* ?x32 |v0:17|)) ?x255) (* ?x126 |v14:3|)) (* ?x56 |v0:17|))))
(let ((?x906 (+ (+ (+ (+ (* ?x180 |v10:7|) ?x33) (* ?x237 |v14:3|)) (* ?x365 |v14:3|)) (* ?x210 |v17:0|))))
(let ((?x539 (* ?x49 |v6:11|)))
(let ((?x895 (+ (+ (+ (+ ?x889 (* ?x237 |v10:7|)) (* ?x10 |v10:7|)) (* ?x126 |v2:15|)) (* ?x83 |v8:9|))))
(let (($x911 (and (<= (+ (+ ?x895 ?x539) (* ?x60 |v9:8|)) ?x60) (<= (+ (+ ?x906 ?x727) (* ?x103 |v6:11|)) ?x10))))
(let ((?x884 (* ?x264 |v11:6|)))
(let ((?x265 (* ?x264 |v0:17|)))
(let ((?x881 (+ (+ (+ (+ (* ?x65 |v12:5|) (* ?x56 |v6:11|)) (* ?x44 |v8:9|)) |v12:5|) ?x265)))
(let ((?x869 (+ (+ (+ (* ?x117 |v7:10|) (* ?x94 |v9:8|)) (* ?x103 |v12:5|)) (* ?x28 |v5:12|))))
(let (($x887 (or (<= (+ (+ (+ ?x869 |v4:13|) |v16:1|) (* ?x49 |v7:10|)) ?x60) (<= (+ (+ ?x881 (* ?x160 |v0:17|)) ?x884) ?x60))))
(let ((?x859 (+ (+ (+ (+ ?x852 (* ?x23 |v7:10|)) (* ?x56 |v0:17|)) (* ?x60 |v2:15|)) ?x61)))
(let ((?x622 (* ?x75 |v13:4|)))
(let ((?x846 (+ (+ (+ (+ (* ?x171 |v16:1|) (* ?x365 |v4:13|)) (* ?x120 |v6:11|)) ?x622) ?x845)))
(let (($x864 (and (<= (+ (+ ?x846 (* ?x32 |v10:7|)) (* ?x156 |v4:13|)) ?x250) (<= (+ (+ ?x859 |v12:5|) ?x861) ?x10))))
(let (($x924 (and (and $x864 $x887) (and $x911 (<= (+ (+ ?x918 (* ?x56 |v1:16|)) ?x704) ?x28)))))
(let (($x1448 (or (and (or $x924 (or (or $x949 $x968) (and $x992 $x1010))) $x1150) (or $x1296 (and (and $x1340 (and $x1359 (<= ?x1368 ?x23))) $x1445)))))
(let ((?x820 (* ?x75 |v4:13|)))
(let ((?x828 (+ (+ (+ (+ ?x497 (* ?x94 |v15:2|)) (* ?x160 |v4:13|)) (* ?x49 |v16:1|)) ?x820)))
(let ((?x815 (+ (+ (+ (* ?x301 |v2:15|) (* ?x10 |v10:7|)) (* ?x117 |v17:0|)) (* ?x126 |v3:14|))))
(let (($x833 (and (<= (+ (+ (+ ?x815 (* ?x264 |v9:8|)) (* ?x49 |v15:2|)) ?x820) ?x65) (<= (+ (+ ?x828 |v3:14|) (* ?x126 |v6:11|)) ?x100))))
(let ((?x430 (* ?x117 |v7:10|)))
(let ((?x648 (* ?x94 |v8:9|)))
(let ((?x803 (+ (+ (+ (+ (* ?x126 |v16:1|) (* ?x49 |v10:7|)) (* ?x130 |v8:9|)) ?x648) ?x430)))
(let ((?x230 (* ?x75 |v5:12|)))
(let ((?x795 (+ (+ (+ (+ (+ ?x292 ?x788) (* ?x75 |v0:17|)) |v2:15|) (* ?x36 |v1:16|)) (* ?x44 |v5:12|))))
(let (($x809 (or (<= (+ ?x795 ?x230) ?x10) (<= (+ (+ ?x803 (* ?x180 |v11:6|)) (* ?x160 |v17:0|)) ?x60))))
(let ((?x781 (+ (+ (+ (+ (* ?x309 |v1:16|) (* ?x365 |v7:10|)) ?x246) ?x571) (* ?x120 |v10:7|))))
(let ((?x769 (+ (+ (+ (+ ?x750 (* ?x49 |v9:8|)) (* ?x250 |v9:8|)) (* ?x180 |v17:0|)) (* ?x301 |v4:13|))))
(let (($x786 (and (<= (+ (+ ?x769 (* ?x117 |v12:5|)) (* ?x83 |v2:15|)) ?x126) (<= (+ (+ ?x781 ?x660) (* ?x189 |v15:2|)) ?x19))))
(let ((?x757 (+ (+ (+ (+ ?x750 (* ?x19 |v13:4|)) (* ?x365 |v1:16|)) (* ?x14 |v17:0|)) (* ?x19 |v3:14|))))
(let ((?x748 (+ (+ (+ (+ (+ (+ ?x740 ?x332) ?x238) (* ?x32 |v11:6|)) ?x140) ?x746) ?x350)))
(let (($x763 (and (<= ?x748 ?x60) (<= (+ (+ ?x757 (* ?x23 |v14:3|)) (* ?x83 |v9:8|)) ?x10))))
(let ((?x165 (- 3)))
(let ((?x734 (+ (+ (+ (+ (+ ?x727 ?x140) (* ?x171 |v3:14|)) (* ?x23 |v9:8|)) ?x688) (* ?x264 |v2:15|))))
(let ((?x721 (+ (+ (+ (+ (* ?x160 |v10:7|) (* ?x14 |v10:7|)) |v2:15|) (* ?x171 |v3:14|)) ?x720)))
(let ((?x711 (+ (+ (+ (+ (* ?x91 |v7:10|) ?x704) (* ?x365 |v6:11|)) (* ?x23 |v8:9|)) (* ?x309 |v8:9|))))
(let (($x726 (or (<= (+ (+ ?x711 (* ?x130 |v0:17|)) ?x713) ?x365) (<= (+ (+ ?x721 (* ?x14 |v8:9|)) (* ?x23 |v12:5|)) ?x365))))
(let ((?x697 (+ (+ (+ (+ ?x261 (* ?x301 |v12:5|)) (* ?x32 |v9:8|)) (* ?x44 |v7:10|)) (* ?x250 |v1:16|))))
(let ((?x687 (+ (+ (+ (+ (+ (* ?x65 |v17:0|) |v15:2|) (* ?x160 |v10:7|)) ?x622) ?x685) (* ?x36 |v2:15|))))
(let (($x701 (and (<= (+ ?x687 ?x688) ?x193) (<= (+ (+ ?x697 (* ?x94 |v6:11|)) (* ?x130 |v1:16|)) ?x365))))
(let ((?x674 (* ?x237 |v10:7|)))
(let ((?x673 (+ (+ (+ (* ?x28 |v16:1|) (* ?x250 |v2:15|)) (* ?x49 |v3:14|)) (* ?x237 |v6:11|))))
(let ((?x664 (+ (+ (+ (+ (+ ?x655 ?x656) (* ?x250 |v2:15|)) ?x660) (* ?x160 |v1:16|)) (* ?x419 |v17:0|))))
(let (($x680 (or (<= (+ ?x664 (* ?x130 |v11:6|)) ?x39) (<= (+ (+ (+ ?x673 ?x674) (* ?x36 |v9:8|)) (* ?x250 |v5:12|)) ?x60))))
(let (($x836 (and (or (or $x680 $x701) (or $x726 (<= (+ ?x734 (* ?x107 |v17:0|)) ?x165))) (and (or $x763 $x786) (or $x809 $x833)))))
(let ((?x643 (+ (+ (+ (* ?x83 |v11:6|) (* ?x49 |v1:16|)) (* ?x309 |v13:4|)) (* ?x91 |v16:1|))))
(let ((?x632 (+ (+ (+ (+ ?x626 (* ?x365 |v0:17|)) (* ?x72 |v16:1|)) (* ?x65 |v11:6|)) ?x29)))
(let (($x651 (or (<= (+ (+ ?x632 ?x172) (* ?x419 |v17:0|)) ?x171) (<= (+ (+ (+ ?x643 (* ?x14 |v17:0|)) (* ?x44 |v16:1|)) ?x648) ?x165))))
(let ((?x617 (* ?x165 |v16:1|)))
(let ((?x620 (+ (+ (+ (+ (* ?x365 |v15:2|) (* ?x137 |v3:14|)) (* ?x91 |v13:4|)) ?x617) ?x619)))
(let ((?x211 (* ?x210 |v8:9|)))
(let ((?x608 (+ (+ (+ (+ (+ ?x600 (* ?x419 |v1:16|)) (* ?x49 |v9:8|)) ?x265) ?x211) (* ?x36 |v10:7|))))
(let (($x652 (or (or (<= (+ ?x608 ?x609) ?x49) (<= (+ (+ ?x620 |v17:0|) ?x622) ?x103)) $x651)))
(let ((?x592 (+ (+ (+ (+ ?x465 (* ?x193 |v6:11|)) (* ?x44 |v1:16|)) ?x589) (* ?x19 |v15:2|))))
(let ((?x582 (+ (+ (+ (+ (+ (* ?x264 |v15:2|) ?x205) (* ?x107 |v7:10|)) ?x578) ?x92) (* ?x28 |v0:17|))))
(let (($x598 (and (<= (+ ?x582 (* ?x156 |v14:3|)) ?x165) (<= (+ (+ ?x592 (* ?x171 |v13:4|)) (* ?x32 |v2:15|)) ?x32))))
(let ((?x568 (+ (+ (+ (* ?x189 |v3:14|) (* ?x126 |v1:16|)) (* ?x103 |v15:2|)) (* ?x165 |v6:11|))))
(let ((?x410 (* ?x171 |v7:10|)))
(let ((?x558 (+ (+ (+ (+ (* ?x75 |v7:10|) (* ?x117 |v10:7|)) (* ?x23 |v6:11|)) ?x410) (* ?x137 |v16:1|))))
(let (($x574 (and (<= (+ (+ ?x558 ?x127) ?x560) ?x32) (<= (+ (+ (+ ?x568 (* ?x171 |v12:5|)) (* ?x91 |v12:5|)) ?x571) ?x171))))
(let ((?x544 (+ (+ (+ (+ (+ ?x535 (* ?x237 |v11:6|)) (* ?x56 |v16:1|)) ?x539) ?x541) (* ?x72 |v9:8|))))
(let ((?x530 (+ (+ (+ (+ (* ?x36 |v15:2|) (* ?x14 |v8:9|)) ?x525) (* ?x60 |v10:7|)) (* ?x23 |v10:7|))))
(let (($x548 (or (<= (+ (+ ?x530 (* ?x419 |v2:15|)) (* ?x130 |v16:1|)) ?x91) (<= (+ ?x544 (* ?x107 |v15:2|)) ?x56))))
(let ((?x514 (+ (+ (+ (* ?x250 |v9:8|) (* ?x165 |v8:9|)) (* ?x126 |v12:5|)) (* ?x250 |v17:0|))))
(let ((?x503 (+ (+ (+ (+ (* ?x237 |v11:6|) ?x497) (* ?x23 |v16:1|)) (* ?x126 |v13:4|)) (* ?x83 |v4:13|))))
(let (($x521 (and (<= (+ (+ ?x503 ?x504) ?x506) ?x65) (<= (+ (+ (+ ?x514 (* ?x120 |v4:13|)) (* ?x165 |v10:7|)) ?x261) ?x365))))
(let ((?x490 (+ (+ (+ (+ (* ?x75 |v11:6|) (* ?x117 |v2:15|)) (* ?x171 |v0:17|)) ?x487) (* ?x103 |v14:3|))))
(let ((?x477 (+ (+ (+ (+ ?x168 (* ?x137 |v13:4|)) (* ?x180 |v12:5|)) (* ?x10 |v10:7|)) |v3:14|)))
(let (($x494 (or (<= (+ (+ ?x477 (* ?x171 |v12:5|)) (* ?x32 |v16:1|)) ?x75) (<= (+ (+ ?x490 ?x168) (* ?x100 |v11:6|)) ?x60))))
(let ((?x464 (+ (+ (+ (+ ?x211 ?x457) (* ?x309 |v16:1|)) (* ?x250 |v12:5|)) (* ?x91 |v12:5|))))
(let ((?x452 (+ (+ (+ (+ (* ?x94 |v5:12|) ?x445) (* ?x91 |v9:8|)) ?x449) (* ?x49 |v12:5|))))
(let (($x470 (or (<= (+ (+ ?x452 (* ?x126 |v12:5|)) ?x449) ?x264) (<= (+ (+ ?x464 ?x465) (* ?x103 |v15:2|)) ?x72))))
(let (($x837 (and (or (or (and $x470 $x494) (or $x521 $x548)) (or (and $x574 $x598) $x652)) $x836)))
(let ((?x151 (* ?x14 |v3:14|)))
(let ((?x437 (+ (+ (+ (+ (+ (* ?x107 |v5:12|) ?x430) ?x332) (* ?x130 |v9:8|)) ?x151) (* ?x56 |v2:15|))))
(let ((?x423 (+ (+ (+ (+ ?x414 (* ?x301 |v15:2|)) (* ?x19 |v14:3|)) (* ?x419 |v4:13|)) (* ?x130 |v8:9|))))
(let ((?x407 (+ (+ (+ (+ (* ?x103 |v12:5|) (* ?x107 |v2:15|)) ?x168) (* ?x44 |v1:16|)) (* ?x117 |v14:3|))))
(let ((?x395 (+ (+ (+ (+ |v0:17| (* ?x365 |v14:3|)) (* ?x94 |v6:11|)) (* ?x100 |v15:2|)) (* ?x165 |v5:12|))))
(let (($x413 (or (<= (+ (+ ?x395 (* ?x56 |v3:14|)) (* ?x309 |v7:10|)) ?x107) (<= (+ (+ ?x407 (* ?x309 |v9:8|)) ?x410) ?x10))))
(let (($x441 (and (or $x413 (<= (+ (+ ?x423 (* ?x72 |v13:4|)) (* ?x237 |v15:2|)) ?x14)) (<= (+ ?x437 (* ?x32 |v16:1|)) ?x49))))
(let ((?x377 (+ (+ (+ (* ?x56 |v9:8|) (* ?x28 |v17:0|)) (* ?x75 |v12:5|)) (* ?x210 |v1:16|))))
(let (($x384 (<= (+ (+ (+ ?x377 (* ?x210 |v11:6|)) (* ?x100 |v11:6|)) (* ?x75 |v17:0|)) ?x126)))
(let ((?x363 (+ (+ (+ (+ ?x356 ?x357) (* ?x250 |v1:16|)) (* ?x14 |v16:1|)) (* ?x180 |v2:15|))))
(let ((?x349 (+ (+ (+ (+ (* ?x250 |v10:7|) (* ?x36 |v9:8|)) ?x292) (* ?x301 |v9:8|)) (* ?x56 |v7:10|))))
(let ((?x337 (+ (+ (+ (+ |v4:13| (* ?x103 |v4:13|)) ?x332) (* ?x130 |v0:17|)) (* ?x100 |v2:15|))))
(let (($x355 (or (<= (+ (+ ?x337 (* ?x107 |v7:10|)) (* ?x94 |v7:10|)) ?x117) (<= (+ (+ ?x349 ?x350) (* ?x10 |v7:10|)) ?x193))))
(let (($x386 (or $x355 (or (<= (+ (+ ?x363 (* ?x365 |v3:14|)) (* ?x301 |v13:4|)) ?x36) $x384))))
(let ((?x323 (+ (+ (+ (+ (* ?x189 |v7:10|) (* ?x36 |v1:16|)) (* ?x180 |v4:13|)) ?x320) (* ?x65 |v17:0|))))
(let ((?x307 (+ (+ (+ (+ ?x61 (* ?x130 |v1:16|)) (* ?x301 |v14:3|)) (* ?x36 |v17:0|)) (* ?x91 |v3:14|))))
(let (($x328 (or (<= (+ (+ ?x307 (* ?x309 |v3:14|)) (* ?x189 |v4:13|)) ?x193) (<= (+ (+ ?x323 (* ?x14 |v4:13|)) (* ?x44 |v9:8|)) ?x10))))
(let ((?x291 (+ (+ (+ (+ (* ?x32 |v17:0|) (* ?x10 |v16:1|)) (* ?x237 |v17:0|)) ?x238) (* ?x250 |v14:3|))))
(let ((?x277 (+ (+ (+ (* ?x94 |v1:16|) (* ?x126 |v11:6|)) (* ?x28 |v3:14|)) (* ?x10 |v1:16|))))
(let (($x297 (or (<= (+ (+ (+ ?x277 (* ?x94 |v12:5|)) (* ?x103 |v5:12|)) ?x127) ?x19) (<= (+ (+ ?x291 ?x292) (* ?x94 |v7:10|)) ?x94))))
(let ((?x260 (+ (+ (+ (+ (* ?x189 |v1:16|) (* ?x189 |v12:5|)) ?x255) (* ?x32 |v13:4|)) (* ?x60 |v5:12|))))
(let ((?x245 (+ (+ (+ (+ (* ?x130 |v16:1|) ?x238) (* ?x193 |v7:10|)) (* ?x156 |v0:17|)) ?x244)))
(let (($x268 (or (<= (+ (+ ?x245 ?x246) (* ?x36 |v2:15|)) ?x250) (<= (+ (+ ?x260 ?x261) ?x265) ?x44))))
(let ((?x226 (+ (+ (+ (+ (* ?x10 |v1:16|) (* ?x160 |v15:2|)) ?x221) (* ?x28 |v14:3|)) (* ?x65 |v11:6|))))
(let ((?x215 (* ?x28 |v8:9|)))
(let ((?x214 (+ (+ (+ (+ (+ (* ?x126 |v15:2|) ?x205) (* ?x156 |v10:7|)) ?x211) ?x104) (* ?x193 |v16:1|))))
(let (($x233 (or (<= (+ ?x214 ?x215) ?x36) (<= (+ (+ ?x226 (* ?x160 |v7:10|)) ?x230) ?x72))))
(let ((?x190 (* ?x189 |v13:4|)))
(let ((?x198 (* ?x36 |v13:4|)))
(let ((?x196 (* ?x171 |v3:14|)))
(let ((?x197 (+ (+ (+ (+ (* ?x137 |v14:3|) (* ?x19 |v14:3|)) ?x190) (* ?x193 |v16:1|)) ?x196)))
(let ((?x178 (+ (+ (+ (+ (* ?x75 |v2:15|) ?x168) ?x172) (* ?x56 |v12:5|)) (* ?x130 |v14:3|))))
(let (($x202 (or (<= (+ (+ ?x178 (* ?x180 |v15:2|)) (* ?x130 |v4:13|)) ?x44) (<= (+ (+ ?x197 ?x198) ?x190) ?x126))))
(let ((?x161 (* ?x160 |v4:13|)))
(let ((?x158 (+ (+ (+ (+ (* ?x100 |v17:0|) (* ?x32 |v15:2|)) ?x151) (* ?x19 |v11:6|)) (* ?x156 |v2:15|))))
(let ((?x139 (+ (+ (+ (+ (* ?x117 |v6:11|) ?x127) (* ?x130 |v6:11|)) (* ?x65 |v10:7|)) (* ?x137 |v17:0|))))
(let (($x167 (and (<= (+ (+ ?x139 ?x140) (* ?x94 |v4:13|)) ?x49) (<= (+ (+ ?x158 ?x161) (* ?x36 |v5:12|)) ?x165))))
(let ((?x114 (* ?x83 |v13:4|)))
(let ((?x113 (+ (+ (+ (+ (* ?x100 |v8:9|) ?x104) (* ?x107 |v5:12|)) (* ?x49 |v11:6|)) (* ?x14 |v4:13|))))
(let ((?x85 (+ (+ (+ (* ?x72 |v8:9|) (* ?x75 |v2:15|)) (* ?x19 |v4:13|)) (* ?x83 |v17:0|))))
(let ((?x58 (+ (+ (+ (+ (* ?x44 |v1:16|) |v13:4|) (* ?x49 |v0:17|)) (* ?x44 |v6:11|)) (* ?x56 |v14:3|))))
(let (($x96 (and (<= (+ (+ ?x58 ?x61) (* ?x65 |v5:12|)) ?x60) (<= (+ (+ (+ ?x85 ?x86) (* ?x72 |v5:12|)) ?x92) ?x94))))
(let ((?x30 (+ (+ (+ (+ ?x11 (* ?x14 |v16:1|)) (* ?x19 |v14:3|)) (* ?x23 |v16:1|)) ?x29)))
(let (($x122 (or (and (<= (+ (+ ?x30 ?x33) ?x37) ?x39) $x96) (<= (+ (+ ?x113 ?x114) (* ?x117 |v16:1|)) ?x120))))
(let (($x443 (and (and $x122 (or (or $x167 $x202) (or $x233 $x268))) (and (and (or $x297 $x328) $x386) $x441))))
(and (and $x443 $x837) $x1448))))))))))))))))))))))))))))))))))))))))))))))))))))))))))))))))))))))))))))))))))))))))))))))))))))))))))))))))))))))))))))))))))))))))))))))))))))))))))))))))))))))))))))))))))))))))))))))))))))))))))))))))))))))))))))))))))))))))))))))))))))))))))))))))))))))))))))))))))))))))))))))))))))))))))))))))))))))))))))))))
)
)
)
)
)
)
)
)
)
)
)
)
)
)
)
)
)
)
(check-sat)
(exit)

